files/upTests/tupley2/0001.eprime.solution
language ESSENCE' 1.0
$ minion Nodes: 15
$ minion TotalTime: 0.000667
$ Savile Row TotalTime: 0.237
letting pain_tuple2 be [[9, 8], 
[8, 8]]
letting pain_tuple3 be [[7, 7], 
[7, 7]]
letting pain_tuple1_tuple3 be [[[5, 6], 
[5, 5]], 
[[6, 5], 
[5, 5]]]
letting pain_tuple1_tuple1 be [[[1, 2], 
[1, 1]], 
[[2, 1], 
[1, 1]]]
letting pain_tuple1_tuple2 be [[[3, 4], 
[3, 3]], 
[[3, 4], 
[3, 3]]]
